c nIsolatedPIs 0
c maxPI 8
p cnf 68 181
c gate 9 7 -8 0
7 -9 0
-8 -9 0
-7 8 9 0
c gate 10 1 -2 0
1 -10 0
-2 -10 0
-1 2 10 0
c gate 11 -5 -10 0
-5 -11 0
-10 -11 0
5 10 11 0
c gate 12 -1 2 0
-1 -12 0
2 -12 0
1 -2 12 0
c gate 13 5 -12 0
5 -13 0
-12 -13 0
-5 12 13 0
c gate 14 -3 6 0
-3 -14 0
6 -14 0
3 -6 14 0
c gate 15 -13 14 0
-13 -15 0
14 -15 0
13 -14 15 0
c gate 16 -11 15 0
-11 -16 0
15 -16 0
11 -15 16 0
c gate 17 5 -6 0
5 -17 0
-6 -17 0
-5 6 17 0
c gate 18 1 2 0
1 -18 0
2 -18 0
-1 -2 18 0
c gate 19 17 18 0
17 -19 0
18 -19 0
-17 -18 19 0
c gate 20 -16 -19 0
-16 -20 0
-19 -20 0
16 19 20 0
c gate 21 4 -20 0
4 -21 0
-20 -21 0
-4 20 21 0
c gate 22 -3 -4 0
-3 -22 0
-4 -22 0
3 4 22 0
c gate 23 -1 17 0
-1 -23 0
17 -23 0
1 -17 23 0
c gate 24 22 23 0
22 -24 0
23 -24 0
-22 -23 24 0
c gate 25 -21 -24 0
-21 -25 0
-24 -25 0
21 24 25 0
c gate 26 9 -25 0
9 -26 0
-25 -26 0
-9 25 26 0
c gate 27 5 6 0
5 -27 0
6 -27 0
-5 -6 27 0
c gate 28 -10 -22 0
-10 -28 0
-22 -28 0
10 22 28 0
c gate 29 -7 -8 0
-7 -29 0
-8 -29 0
7 8 29 0
c gate 30 3 4 0
3 -30 0
4 -30 0
-3 -4 30 0
c gate 31 -12 -30 0
-12 -31 0
-30 -31 0
12 30 31 0
c gate 32 29 -31 0
29 -32 0
-31 -32 0
-29 31 32 0
c gate 33 -28 32 0
-28 -33 0
32 -33 0
28 -32 33 0
c gate 34 1 -22 0
1 -34 0
-22 -34 0
-1 22 34 0
c gate 35 -1 -30 0
-1 -35 0
-30 -35 0
1 30 35 0
c gate 36 7 8 0
7 -36 0
8 -36 0
-7 -8 36 0
c gate 37 -2 36 0
-2 -37 0
36 -37 0
2 -36 37 0
c gate 38 -35 37 0
-35 -38 0
37 -38 0
35 -37 38 0
c gate 39 -34 38 0
-34 -39 0
38 -39 0
34 -38 39 0
c gate 40 -33 -39 0
-33 -40 0
-39 -40 0
33 39 40 0
c gate 41 27 -40 0
27 -41 0
-40 -41 0
-27 40 41 0
c gate 42 -5 -6 0
-5 -42 0
-6 -42 0
5 6 42 0
c gate 43 4 -8 0
4 -43 0
-8 -43 0
-4 8 43 0
c gate 44 7 43 0
7 -44 0
43 -44 0
-7 -43 44 0
c gate 45 35 44 0
35 -45 0
44 -45 0
-35 -44 45 0
c gate 46 -4 29 0
-4 -46 0
29 -46 0
4 -29 46 0
c gate 47 1 9 0
1 -47 0
9 -47 0
-1 -9 47 0
c gate 48 -46 -47 0
-46 -48 0
-47 -48 0
46 47 48 0
c gate 49 2 3 0
2 -49 0
3 -49 0
-2 -3 49 0
c gate 50 -48 49 0
-48 -50 0
49 -50 0
48 -49 50 0
c gate 51 -45 -50 0
-45 -51 0
-50 -51 0
45 50 51 0
c gate 52 42 -51 0
42 -52 0
-51 -52 0
-42 51 52 0
c gate 53 -22 -30 0
-22 -53 0
-30 -53 0
22 30 53 0
c gate 54 10 17 0
10 -54 0
17 -54 0
-10 -17 54 0
c gate 55 36 54 0
36 -55 0
54 -55 0
-36 -54 55 0
c gate 56 -53 55 0
-53 -56 0
55 -56 0
53 -55 56 0
c gate 57 17 43 0
17 -57 0
43 -57 0
-17 -43 57 0
c gate 58 -27 -42 0
-27 -58 0
-42 -58 0
27 42 58 0
c gate 59 -4 8 0
-4 -59 0
8 -59 0
4 -8 59 0
c gate 60 -58 59 0
-58 -60 0
59 -60 0
58 -59 60 0
c gate 61 -57 -60 0
-57 -61 0
-60 -61 0
57 60 61 0
c gate 62 3 -7 0
3 -62 0
-7 -62 0
-3 7 62 0
c gate 63 12 62 0
12 -63 0
62 -63 0
-12 -62 63 0
c gate 64 -61 63 0
-61 -64 0
63 -64 0
61 -63 64 0
c gate 65 -56 -64 0
-56 -65 0
-64 -65 0
56 64 65 0
c gate 66 -52 65 0
-52 -66 0
65 -66 0
52 -65 66 0
c gate 67 -41 66 0
-41 -67 0
66 -67 0
41 -66 67 0
c gate 68 -26 67 0
-26 -68 0
67 -68 0
26 -67 68 0
c PO
-68 0
